c turning on binary mode checking
c parsing input formula with 180 variables and 648 clauses
c finished parsing, read 46775813 bytes from proof file
c detected empty clause; start verification via backward checking
c 648 of 648 clauses in core                            
c 756331 of 928433 lemmas in core using 19877688 resolution steps
c 0 RAT lemmas in core; 346385 redundant literals in core lemmas
s VERIFIED
c verification time: 121.025 seconds
